0	256	137	152	193	461	542	627	889
256	0	125	209	422	206	313	848	719
137	125	0	143	297	326	424	723	829
152	209	143	0	337	414	484	776	737
193	422	297	337	0	623	720	517	1075
461	206	326	414	623	0	249	840	700
542	313	424	484	720	249	0	1089	511
627	848	723	776	517	840	1089	0	1552
889	719	829	737	1075	700	511	1552	0
